% Auto-generated by scripts/generate_dzn.py
% problem_type   = regex
% instance       = regex_0
% source_json    = instances_json/1_medium_blowup/regex_0.json
% blowup         = 7.882352941176471
% representation = NFA

mode = 1;

var_count = 14;
n_constraints = 2;
Q = 13;
S = 2;
q0 = [1, 1];
F = [{13}, {4}];
weights = [1, 10, 9, 9, 3, 1, 8, 7, 1, 6, 6, 1, 1, 6];
d_dfa = array3d(1..2, 1..13, 1..2, [
  % k = 1
    0, 0,
    0, 0,
    0, 0,
    0, 0,
    0, 0,
    0, 0,
    0, 0,
    0, 0,
    0, 0,
    0, 0,
    0, 0,
    0, 0,
    0, 0,

  % k = 2
    0, 0,
    0, 0,
    0, 0,
    0, 0,
    0, 0,
    0, 0,
    0, 0,
    0, 0,
    0, 0,
    0, 0,
    0, 0,
    0, 0,
    0, 0
]);
d_nfa = array3d(1..2, 1..13, 1..2, [
  % k = 1
    {1, 2}, {1},
    {3}, {},
    {}, {4},
    {5}, {5},
    {6}, {6},
    {7}, {7},
    {8}, {8},
    {9}, {9},
    {10}, {10},
    {11}, {11},
    {12}, {12},
    {13}, {13},
    {}, {},

  % k = 2
    {2}, {1},
    {3}, {2},
    {4}, {3},
    {}, {4},
    {}, {},
    {}, {},
    {}, {},
    {}, {},
    {}, {},
    {}, {},
    {}, {},
    {}, {},
    {}, {}
]);
